Version identifier: 22.1.1.0 | 2022-11-28 | 9160aff4d
CPXPARAM_TimeLimit                               3600
Tried aggregator 1 time.
MIP Presolve eliminated 189 rows and 140 columns.
Reduced MIP has 5411 rows, 2471 columns, and 16133 nonzeros.
Reduced MIP has 2471 binaries, 0 generals, 0 SOSs, and 0 indicators.
Presolve time = 0.01 sec. (12.41 ticks)
Found incumbent of value 3846393.000000 after 0.01 sec. (15.09 ticks)
Probing time = 0.01 sec. (3.51 ticks)
Tried aggregator 1 time.
Detecting symmetries...
Reduced MIP has 5411 rows, 2471 columns, and 16133 nonzeros.
Reduced MIP has 2471 binaries, 0 generals, 0 SOSs, and 0 indicators.
Presolve time = 0.01 sec. (13.74 ticks)
Probing time = 0.01 sec. (3.51 ticks)
Clique table members: 2361.
MIP emphasis: balance optimality and feasibility.
MIP search method: dynamic search.
Parallel mode: deterministic, using up to 8 threads.
Root relaxation solution time = 0.01 sec. (10.31 ticks)

        Nodes                                         Cuts/
   Node  Left     Objective  IInf  Best Integer    Best Bound    ItCnt     Gap

*     0+    0                      3846393.0000        0.0000           100.00%
*     0+    0                      2109817.0000        0.0000           100.00%
*     0+    0                      1786008.0000        0.0000           100.00%
*     0+    0                      1720216.0000        0.0000           100.00%
      0     0    93774.0000   100  1720216.0000    93774.0000      157   94.55%
*     0+    0                      1002855.0000    93774.0000            90.65%
      0     0   106217.5000   100  1002855.0000     Cuts: 150      265   89.41%
*     0+    0                       139834.0000   106217.5000            24.04%
      0     0   118044.0000    88   139834.0000     Cuts: 150      382   15.58%
*     0+    0                       139492.0000   118044.0000            15.38%
      0     0  -1.00000e+75     0   139492.0000   118044.0000      382   15.38%
Detecting symmetries...

Repeating presolve.
Tried aggregator 1 time.
MIP Presolve eliminated 4547 rows and 1812 columns.
MIP Presolve modified 498 coefficients.
Reduced MIP has 864 rows, 659 columns, and 2928 nonzeros.
Reduced MIP has 659 binaries, 0 generals, 0 SOSs, and 0 indicators.
Presolve time = 0.00 sec. (4.99 ticks)
Probing time = 0.00 sec. (0.74 ticks)
Tried aggregator 1 time.
Detecting symmetries...
Reduced MIP has 864 rows, 659 columns, and 2928 nonzeros.
Reduced MIP has 659 binaries, 0 generals, 0 SOSs, and 0 indicators.
Presolve time = 0.00 sec. (2.92 ticks)
Represolve time = 0.01 sec. (13.14 ticks)
Probing time = 0.00 sec. (0.74 ticks)
Clique table members: 692.
MIP emphasis: balance optimality and feasibility.
MIP search method: dynamic search.
Parallel mode: deterministic, using up to 8 threads.
Root relaxation solution time = 0.01 sec. (6.05 ticks)

        Nodes                                         Cuts/
   Node  Left     Objective  IInf  Best Integer    Best Bound    ItCnt     Gap

*     0+    0                       139492.0000   118044.0000            15.38%
      0     0   118044.0000    88   139492.0000   118044.0000      599   15.38%
*     0+    0                       138427.0000   118044.0000            14.72%
      0     0   126123.9615   136   138427.0000      Cuts: 35      778    8.89%
      0     0   128189.8322   169   138427.0000      Cuts: 64      867    7.40%
      0     0   129981.5255   161   138427.0000      Cuts: 39      967    6.10%
      0     0   130356.7286   176   138427.0000      Cuts: 25     1036    5.83%
      0     0   130676.5045   185   138427.0000      Cuts: 25     1101    5.60%
Detecting symmetries...
      0     0   130936.0904   189   138427.0000      Cuts: 14     1152    5.41%
      0     0   131287.3043   167   138427.0000      Cuts: 27     1207    5.16%
      0     0        cutoff         138427.0000   138427.0000     1207    0.00%
Elapsed time = 0.35 sec. (245.62 ticks, tree = 0.01 MB, solutions = 8)

Implied bound cuts applied:  53
Zero-half cuts applied:  28
Lift and project cuts applied:  1
Gomory fractional cuts applied:  1

Root node processing (before b&c):
  Real time             =    0.36 sec. (245.83 ticks)
Parallel b&c, 8 threads:
  Real time             =    0.00 sec. (0.00 ticks)
  Sync time (average)   =    0.00 sec.
  Wait time (average)   =    0.00 sec.
                          ------------
Total (root+branch&cut) =    0.36 sec. (245.83 ticks)
Status: Optimal
Obj: 138427

Instalacoes abertas:
Instalação 4 aberta
Instalação 9 aberta
Instalação 20 aberta
Instalação 22 aberta

Atribuições (cliente -> instalação):
Cliente 0 -> Instalação 9
Cliente 1 -> Instalação 9
Cliente 2 -> Instalação 4
Cliente 3 -> Instalação 20
Cliente 4 -> Instalação 4
Cliente 5 -> Instalação 9
Cliente 6 -> Instalação 20
Cliente 7 -> Instalação 9
Cliente 8 -> Instalação 4
Cliente 9 -> Instalação 9
Cliente 10 -> Instalação 9
Cliente 11 -> Instalação 9
Cliente 12 -> Instalação 20
Cliente 13 -> Instalação 20
Cliente 14 -> Instalação 9
Cliente 15 -> Instalação 4
Cliente 16 -> Instalação 9
Cliente 17 -> Instalação 20
Cliente 18 -> Instalação 4
Cliente 19 -> Instalação 9
Cliente 20 -> Instalação 20
Cliente 21 -> Instalação 9
Cliente 22 -> Instalação 22
Cliente 23 -> Instalação 4
Cliente 24 -> Instalação 20
Cliente 25 -> Instalação 4
Cliente 26 -> Instalação 4
Cliente 27 -> Instalação 9
Cliente 28 -> Instalação 9
Cliente 29 -> Instalação 9
Cliente 30 -> Instalação 4
Cliente 31 -> Instalação 9
Cliente 32 -> Instalação 9
Cliente 33 -> Instalação 20
Cliente 34 -> Instalação 20
Cliente 35 -> Instalação 4
Cliente 36 -> Instalação 20
Cliente 37 -> Instalação 20
Cliente 38 -> Instalação 4
Cliente 39 -> Instalação 20
Cliente 40 -> Instalação 20
Cliente 41 -> Instalação 20
Cliente 42 -> Instalação 9
Cliente 43 -> Instalação 9
Cliente 44 -> Instalação 9
Cliente 45 -> Instalação 4
Cliente 46 -> Instalação 4
Cliente 47 -> Instalação 9
Cliente 48 -> Instalação 20
Cliente 49 -> Instalação 9
